results/sol/FMS_15_deadline_heurFalse.sol
# Solution for model JobShopModel
# Objective value = 5525
y[0,0,3] 1
y[0,0,4] 0
y[0,0,6] 0
y[0,1,1] 0
y[0,1,3] 0
y[0,1,6] 1
y[0,2,0] 1
y[0,2,1] 0
y[0,2,2] 0
y[1,0,4] 0
y[1,0,5] 1
y[1,0,6] 0
y[1,1,1] 0
y[1,1,2] 1
y[1,2,0] 0
y[1,2,2] 1
y[2,0,3] 0
y[2,0,4] 1
y[2,0,5] 0
y[2,1,2] 0
y[2,1,3] 0
y[2,1,6] 1
y[2,2,0] 0
y[2,2,1] 1
y[3,0,3] 1
y[3,0,5] 0
y[3,1,2] 0
y[3,1,4] 1
y[3,2,0] 0
y[3,2,1] 1
y[4,0,1] 0
y[4,0,4] 0
y[4,0,5] 1
y[4,1,3] 1
y[4,1,4] 0
y[4,1,6] 0
y[4,2,0] 1
y[4,2,1] 0
y[4,2,2] 0
y[5,0,4] 0
y[5,0,5] 1
y[5,0,6] 0
y[5,1,2] 1
y[5,1,3] 0
y[5,1,4] 0
y[5,2,1] 1
y[5,2,2] 0
y[5,2,3] 0
y[6,0,4] 1
y[6,0,5] 0
y[6,0,6] 0
y[6,1,2] 1
y[6,1,4] 0
y[6,2,1] 1
y[6,2,2] 0
x[0,0,0,0] 0
x[0,0,0,1] 1
x[0,0,0,2] 0
x[0,0,1,0] 0
x[0,0,1,1] 0
x[0,0,1,2] 0
x[0,0,2,0] 0
x[0,0,2,1] 1
x[0,0,2,2] 0
x[0,0,3,0] 1
x[0,0,3,1] 0
x[0,0,3,2] 0
x[0,0,4,0] 0
x[0,0,4,1] 1
x[0,0,4,2] 0
x[0,0,5,0] 1
x[0,0,5,1] 1
x[0,0,5,2] 0
x[0,0,6,0] 0
x[0,0,6,1] 0
x[0,0,6,2] 0
x[0,1,0,0] 0
x[0,1,0,1] 0
x[0,1,0,2] 0
x[0,1,1,0] 1
x[0,1,1,1] 0
x[0,1,1,2] 0
x[0,1,2,0] 0
x[0,1,2,1] 1
x[0,1,2,2] 0
x[0,1,3,0] 0
x[0,1,3,1] 0
x[0,1,3,2] 0
x[0,1,4,0] 0
x[0,1,4,1] 0
x[0,1,4,2] 1
x[0,1,5,0] 1
x[0,1,5,1] 0
x[0,1,5,2] 0
x[0,1,6,0] 0
x[0,1,6,1] 0
x[0,1,6,2] 1
x[0,2,0,0] 0
x[0,2,0,1] 1
x[0,2,0,2] 0
x[0,2,1,0] 0
x[0,2,1,1] 1
x[0,2,1,2] 0
x[0,2,2,0] 0
x[0,2,2,1] 0
x[0,2,2,2] 1
x[0,2,3,0] 0
x[0,2,3,1] 0
x[0,2,3,2] 0
x[0,2,4,0] 0
x[0,2,4,1] 0
x[0,2,4,2] 1
x[0,2,5,0] 0
x[0,2,5,1] 1
x[0,2,5,2] 1
x[0,2,6,0] 0
x[0,2,6,1] 0
x[0,2,6,2] 0
x[1,0,0,0] 0
x[1,0,0,1] 0
x[1,0,0,2] 0
x[1,0,1,0] 0
x[1,0,1,1] 0
x[1,0,1,2] 0
x[1,0,2,0] 0
x[1,0,2,1] 0
x[1,0,2,2] 0
x[1,0,3,0] 0
x[1,0,3,1] 0
x[1,0,3,2] 0
x[1,0,4,0] 1
x[1,0,4,1] 0
x[1,0,4,2] 0
x[1,0,5,0] 0
x[1,0,5,1] 0
x[1,0,5,2] 0
x[1,0,6,0] 1
x[1,0,6,1] 0
x[1,0,6,2] 0
x[1,1,0,0] 0
x[1,1,0,1] 0
x[1,1,0,2] 0
x[1,1,1,0] 0
x[1,1,1,1] 0
x[1,1,1,2] 1
x[1,1,2,0] 0
x[1,1,2,1] 0
x[1,1,2,2] 1
x[1,1,3,0] 0
x[1,1,3,1] 0
x[1,1,3,2] 1
x[1,1,4,0] 0
x[1,1,4,1] 0
x[1,1,4,2] 1
x[1,1,5,0] 0
x[1,1,5,1] 0
x[1,1,5,2] 1
x[1,1,6,0] 0
x[1,1,6,1] 0
x[1,1,6,2] 1
x[1,2,0,0] 0
x[1,2,0,1] 0
x[1,2,0,2] 0
x[1,2,1,0] 0
x[1,2,1,1] 0
x[1,2,1,2] 0
x[1,2,2,0] 0
x[1,2,2,1] 0
x[1,2,2,2] 0
x[1,2,3,0] 0
x[1,2,3,1] 1
x[1,2,3,2] 1
x[1,2,4,0] 0
x[1,2,4,1] 0
x[1,2,4,2] 0
x[1,2,5,0] 0
x[1,2,5,1] 0
x[1,2,5,2] 1
x[1,2,6,0] 0
x[1,2,6,1] 0
x[1,2,6,2] 0
x[2,0,0,0] 0
x[2,0,0,1] 0
x[2,0,0,2] 0
x[2,0,1,0] 0
x[2,0,1,1] 0
x[2,0,1,2] 0
x[2,0,2,0] 0
x[2,0,2,1] 0
x[2,0,2,2] 0
x[2,0,3,0] 1
x[2,0,3,1] 1
x[2,0,3,2] 0
x[2,0,4,0] 0
x[2,0,4,1] 1
x[2,0,4,2] 0
x[2,0,5,0] 0
x[2,0,5,1] 0
x[2,0,5,2] 0
x[2,0,6,0] 0
x[2,0,6,1] 0
x[2,0,6,2] 0
x[2,1,0,0] 0
x[2,1,0,1] 0
x[2,1,0,2] 0
x[2,1,1,0] 0
x[2,1,1,1] 0
x[2,1,1,2] 0
x[2,1,2,0] 1
x[2,1,2,1] 0
x[2,1,2,2] 0
x[2,1,3,0] 1
x[2,1,3,1] 0
x[2,1,3,2] 0
x[2,1,4,0] 0
x[2,1,4,1] 0
x[2,1,4,2] 0
x[2,1,5,0] 1
x[2,1,5,1] 1
x[2,1,5,2] 1
x[2,1,6,0] 0
x[2,1,6,1] 1
x[2,1,6,2] 0
x[2,2,0,0] 0
x[2,2,0,1] 0
x[2,2,0,2] 0
x[2,2,1,0] 0
x[2,2,1,1] 0
x[2,2,1,2] 0
x[2,2,2,0] 0
x[2,2,2,1] 0
x[2,2,2,2] 0
x[2,2,3,0] 0
x[2,2,3,1] 0
x[2,2,3,2] 1
x[2,2,4,0] 0
x[2,2,4,1] 0
x[2,2,4,2] 0
x[2,2,5,0] 0
x[2,2,5,1] 0
x[2,2,5,2] 0
x[2,2,6,0] 0
x[2,2,6,1] 0
x[2,2,6,2] 0
x[3,0,0,0] 0
x[3,0,0,1] 0
x[3,0,0,2] 0
x[3,0,1,0] 0
x[3,0,1,1] 0
x[3,0,1,2] 0
x[3,0,2,0] 0
x[3,0,2,1] 0
x[3,0,2,2] 0
x[3,0,3,0] 0
x[3,0,3,1] 0
x[3,0,3,2] 0
x[3,0,4,0] 0
x[3,0,4,1] 1
x[3,0,4,2] 0
x[3,0,5,0] 0
x[3,0,5,1] 1
x[3,0,5,2] 0
x[3,0,6,0] 0
x[3,0,6,1] 0
x[3,0,6,2] 0
x[3,1,0,0] 0
x[3,1,0,1] 0
x[3,1,0,2] 0
x[3,1,1,0] 0
x[3,1,1,1] 0
x[3,1,1,2] 0
x[3,1,2,0] 0
x[3,1,2,1] 0
x[3,1,2,2] 0
x[3,1,3,0] 0
x[3,1,3,1] 0
x[3,1,3,2] 0
x[3,1,4,0] 0
x[3,1,4,1] 0
x[3,1,4,2] 1
x[3,1,5,0] 1
x[3,1,5,1] 0
x[3,1,5,2] 1
x[3,1,6,0] 0
x[3,1,6,1] 0
x[3,1,6,2] 0
x[3,2,0,0] 0
x[3,2,0,1] 0
x[3,2,0,2] 0
x[3,2,1,0] 0
x[3,2,1,1] 0
x[3,2,1,2] 0
x[3,2,2,0] 0
x[3,2,2,1] 0
x[3,2,2,2] 0
x[3,2,3,0] 0
x[3,2,3,1] 0
x[3,2,3,2] 0
x[3,2,4,0] 0
x[3,2,4,1] 0
x[3,2,4,2] 0
x[3,2,5,0] 0
x[3,2,5,1] 0
x[3,2,5,2] 0
x[3,2,6,0] 0
x[3,2,6,1] 0
x[3,2,6,2] 0
x[4,0,0,0] 0
x[4,0,0,1] 0
x[4,0,0,2] 0
x[4,0,1,0] 0
x[4,0,1,1] 0
x[4,0,1,2] 0
x[4,0,2,0] 0
x[4,0,2,1] 0
x[4,0,2,2] 0
x[4,0,3,0] 0
x[4,0,3,1] 0
x[4,0,3,2] 0
x[4,0,4,0] 0
x[4,0,4,1] 0
x[4,0,4,2] 0
x[4,0,5,0] 0
x[4,0,5,1] 0
x[4,0,5,2] 0
x[4,0,6,0] 0
x[4,0,6,1] 0
x[4,0,6,2] 1
x[4,1,0,0] 0
x[4,1,0,1] 0
x[4,1,0,2] 0
x[4,1,1,0] 0
x[4,1,1,1] 0
x[4,1,1,2] 0
x[4,1,2,0] 0
x[4,1,2,1] 0
x[4,1,2,2] 0
x[4,1,3,0] 0
x[4,1,3,1] 0
x[4,1,3,2] 0
x[4,1,4,0] 1
x[4,1,4,1] 0
x[4,1,4,2] 0
x[4,1,5,0] 0
x[4,1,5,1] 1
x[4,1,5,2] 0
x[4,1,6,0] 0
x[4,1,6,1] 0
x[4,1,6,2] 0
x[4,2,0,0] 0
x[4,2,0,1] 0
x[4,2,0,2] 0
x[4,2,1,0] 0
x[4,2,1,1] 0
x[4,2,1,2] 0
x[4,2,2,0] 0
x[4,2,2,1] 0
x[4,2,2,2] 0
x[4,2,3,0] 0
x[4,2,3,1] 0
x[4,2,3,2] 0
x[4,2,4,0] 1
x[4,2,4,1] 0
x[4,2,4,2] 0
x[4,2,5,0] 0
x[4,2,5,1] 0
x[4,2,5,2] 0
x[4,2,6,0] 0
x[4,2,6,1] 0
x[4,2,6,2] 0
x[5,0,0,0] 0
x[5,0,0,1] 0
x[5,0,0,2] 0
x[5,0,1,0] 0
x[5,0,1,1] 0
x[5,0,1,2] 0
x[5,0,2,0] 0
x[5,0,2,1] 0
x[5,0,2,2] 0
x[5,0,3,0] 0
x[5,0,3,1] 0
x[5,0,3,2] 0
x[5,0,4,0] 0
x[5,0,4,1] 0
x[5,0,4,2] 0
x[5,0,5,0] 0
x[5,0,5,1] 0
x[5,0,5,2] 0
x[5,0,6,0] 0
x[5,0,6,1] 1
x[5,0,6,2] 0
x[5,1,0,0] 0
x[5,1,0,1] 0
x[5,1,0,2] 0
x[5,1,1,0] 0
x[5,1,1,1] 0
x[5,1,1,2] 0
x[5,1,2,0] 0
x[5,1,2,1] 0
x[5,1,2,2] 0
x[5,1,3,0] 0
x[5,1,3,1] 0
x[5,1,3,2] 0
x[5,1,4,0] 0
x[5,1,4,1] 0
x[5,1,4,2] 0
x[5,1,5,0] 1
x[5,1,5,1] 0
x[5,1,5,2] 0
x[5,1,6,0] 0
x[5,1,6,1] 0
x[5,1,6,2] 0
x[5,2,0,0] 0
x[5,2,0,1] 0
x[5,2,0,2] 0
x[5,2,1,0] 0
x[5,2,1,1] 0
x[5,2,1,2] 0
x[5,2,2,0] 0
x[5,2,2,1] 0
x[5,2,2,2] 0
x[5,2,3,0] 0
x[5,2,3,1] 0
x[5,2,3,2] 0
x[5,2,4,0] 0
x[5,2,4,1] 0
x[5,2,4,2] 0
x[5,2,5,0] 0
x[5,2,5,1] 1
x[5,2,5,2] 0
x[5,2,6,0] 0
x[5,2,6,1] 1
x[5,2,6,2] 0
x[6,0,0,0] 0
x[6,0,0,1] 0
x[6,0,0,2] 0
x[6,0,1,0] 0
x[6,0,1,1] 0
x[6,0,1,2] 0
x[6,0,2,0] 0
x[6,0,2,1] 0
x[6,0,2,2] 0
x[6,0,3,0] 0
x[6,0,3,1] 0
x[6,0,3,2] 0
x[6,0,4,0] 0
x[6,0,4,1] 0
x[6,0,4,2] 0
x[6,0,5,0] 0
x[6,0,5,1] 0
x[6,0,5,2] 0
x[6,0,6,0] 0
x[6,0,6,1] 0
x[6,0,6,2] 0
x[6,1,0,0] 0
x[6,1,0,1] 0
x[6,1,0,2] 0
x[6,1,1,0] 0
x[6,1,1,1] 0
x[6,1,1,2] 0
x[6,1,2,0] 0
x[6,1,2,1] 0
x[6,1,2,2] 0
x[6,1,3,0] 0
x[6,1,3,1] 0
x[6,1,3,2] 0
x[6,1,4,0] 0
x[6,1,4,1] 0
x[6,1,4,2] 0
x[6,1,5,0] 0
x[6,1,5,1] 0
x[6,1,5,2] 0
x[6,1,6,0] 1
x[6,1,6,1] 0
x[6,1,6,2] 0
x[6,2,0,0] 0
x[6,2,0,1] 0
x[6,2,0,2] 0
x[6,2,1,0] 0
x[6,2,1,1] 0
x[6,2,1,2] 0
x[6,2,2,0] 0
x[6,2,2,1] 0
x[6,2,2,2] 0
x[6,2,3,0] 0
x[6,2,3,1] 0
x[6,2,3,2] 0
x[6,2,4,0] 0
x[6,2,4,1] 0
x[6,2,4,2] 0
x[6,2,5,0] 0
x[6,2,5,1] 0
x[6,2,5,2] 0
x[6,2,6,0] 0
x[6,2,6,1] 1
x[6,2,6,2] 0
s[0,0,3] 1291
s[0,0,4] 0
s[0,0,6] 0
s[0,1,1] 0
s[0,1,3] 0
s[0,1,6] 1169
s[0,2,0] 818
s[0,2,1] 0
s[0,2,2] 0
s[1,0,4] 0
s[1,0,5] 974
s[1,0,6] 0
s[1,1,1] 0
s[1,1,2] 777
s[1,2,0] 0
s[1,2,2] 480
s[2,0,3] 0
s[2,0,4] 817
s[2,0,5] 0
s[2,1,2] 0
s[2,1,3] 0
s[2,1,6] 672
s[2,2,0] 0
s[2,2,1] 607
s[3,0,3] 871
s[3,0,5] 0
s[3,1,2] 0
s[3,1,4] 545
s[3,2,0] 0
s[3,2,1] 480
s[4,0,1] 0
s[4,0,4] 0
s[4,0,5] 673
s[4,1,3] 608
s[4,1,4] 0
s[4,1,6] 0
s[4,2,0] 480
s[4,2,1] 0
s[4,2,2] 0
s[5,0,4] 0
s[5,0,5] 1277
s[5,0,6] 0
s[5,1,2] 1155
s[5,1,3] 0
s[5,1,4] 0
s[5,2,1] 844
s[5,2,2] 0
s[5,2,3] 0
s[6,0,4] 2022
s[6,0,5] 0
s[6,0,6] 0
s[6,1,2] 1898
s[6,1,4] 0
s[6,2,1] 1741
s[6,2,2] 0
Z_FO 5525
C552 1
C553 0
C554 0
C555 0
C556 1
C557 0
C558 0
C559 1
C560 0
C561 1
C562 0
C563 0
C564 0
C565 1
C566 0
C567 1
C568 0
C569 1
C570 0
C571 0
