results/log/FMS_15_deadline_heurFalse.log

Gurobi 10.0.1 (win64) logging started Sun Oct  8 11:17:24 2023

Set parameter LogFile to value "./results//log/FMS_15_deadline_heurFalse.log"
Gurobi Optimizer version 10.0.1 build v10.0.1rc0 (win64)

CPU model: AMD Ryzen 7 3700X 8-Core Processor, instruction set [SSE2|AVX|AVX2]
Thread count: 8 physical cores, 16 logical processors, using up to 16 threads

Optimize a model with 646 rows, 572 columns and 2622 nonzeros
Model fingerprint: 0x6a9b7542
Model has 1 quadratic constraint
Variable types: 0 continuous, 572 integer (516 binary)
Coefficient statistics:
  Matrix range     [1e+00, 1e+07]
  QMatrix range    [1e+00, 1e+00]
  QLMatrix range   [1e+00, 4e+02]
  Objective range  [1e+00, 1e+00]
  Bounds range     [1e+00, 1e+00]
  RHS range        [1e+00, 3e+07]
Presolve removed 83 rows and 296 columns
Presolve time: 0.01s
Presolved: 584 rows, 296 columns, 2618 nonzeros
Variable types: 0 continuous, 296 integer (220 binary)

Root relaxation: objective 0.000000e+00, 77 iterations, 0.00 seconds (0.00 work units)

    Nodes    |    Current Node    |     Objective Bounds      |     Work
 Expl Unexpl |  Obj  Depth IntInf | Incumbent    BestBd   Gap | It/Node Time

     0     0    0.00000    0   26          -    0.00000      -     -    0s
H    0     0                    14157.000000    0.00000   100%     -    0s
H    0     0                    14156.000000    0.00000   100%     -    0s
H    0     0                    13637.000000    0.00000   100%     -    0s
H    0     0                    13635.000000    0.00000   100%     -    0s
     0     0    0.00000    0   41 13635.0000    0.00000   100%     -    0s
H    0     0                    13634.000000    0.00000   100%     -    0s
H    0     0                    13519.000000    0.00000   100%     -    0s
H    0     0                    12746.000000    0.00000   100%     -    0s
H    0     0                    10551.000000    0.00000   100%     -    0s
     0     0    0.00000    0   45 10551.0000    0.00000   100%     -    0s
     0     0    0.00000    0   23 10551.0000    0.00000   100%     -    0s
H    0     0                    9880.0000000    0.00000   100%     -    0s
     0     0    0.00000    0   36 9880.00000    0.00000   100%     -    0s
     0     0    0.00000    0   49 9880.00000    0.00000   100%     -    0s
     0     0    0.00000    0   64 9880.00000    0.00000   100%     -    0s
H    0     0                    9422.0000000 2108.95825  77.6%     -    0s
H    0     0                    9325.0000000 2108.95825  77.4%     -    0s
     0     0 2108.95825    0   40 9325.00000 2108.95825  77.4%     -    0s
H    0     0                    9111.0000000 2166.91618  76.2%     -    0s
H    0     0                    9098.0000000 2166.91618  76.2%     -    0s
     0     0 2166.91618    0   46 9098.00000 2166.91618  76.2%     -    0s
     0     0 2169.83714    0   47 9098.00000 2169.83714  76.2%     -    0s
     0     0 2382.90159    0   51 9098.00000 2382.90159  73.8%     -    0s
     0     0 2383.23745    0   53 9098.00000 2383.23745  73.8%     -    0s
H    0     0                    9070.0000000 2383.43054  73.7%     -    0s
     0     0 2383.43054    0   52 9070.00000 2383.43054  73.7%     -    0s
     0     0 2383.43054    0   48 9070.00000 2383.43054  73.7%     -    0s
H    0     0                    9068.0000000 2383.82117  73.7%     -    0s
H    0     0                    8965.0000000 2383.82117  73.4%     -    0s
H    0     1                    8963.0000000 2383.82117  73.4%     -    0s
     0     1 2383.82117    0   47 8963.00000 2383.82117  73.4%     -    0s
H   31    34                    8940.0000000 2426.00000  72.9%  11.8    0s
H  119   119                    8938.0000000 2426.00000  72.9%   6.8    0s
H  180   180                    8877.0000000 2426.00000  72.7%   6.1    0s
H  185   180                    7184.0000000 2426.00000  66.2%   6.0    0s
H  270   225                    6524.0000000 2426.00000  62.8%   5.6    0s
H 2363  1230                    6513.0000000 2718.09214  58.3%   9.3    4s
H 2420  1226                    6465.0000000 2718.09214  58.0%   9.5    4s
H 2444  1164                    6404.0000000 2718.09214  57.6%   9.5    4s
H 3539  1129                    6403.0000000 2728.01140  57.4%  11.3    4s
  4065  1142 3326.87498   36   69 6403.00000 2762.00152  56.9%  11.6    5s
H 4066  1093                    6173.0000000 2762.00152  55.3%  11.6    5s
H 4069  1046                    6089.0000000 2762.00152  54.6%  11.6    5s
H 4073  1001                    5919.0000000 2762.00152  53.3%  11.6    5s
H 4088   959                    5733.0000000 2762.00152  51.8%  11.6    8s
H 4097   916                    5525.0000000 2762.00152  50.0%  11.6    8s
 12569  3595 3423.70822   44   69 5525.00000 3076.89295  44.3%  15.2   10s
 23192  6579 3666.43223   41   62 5525.00000 3263.00000  40.9%  15.6   15s
 38998 10726 4953.00000   51   35 5525.00000 3476.00000  37.1%  15.7   20s
 44203 12040 4630.35406   48   53 5525.00000 3539.00000  35.9%  15.7   25s
 55163 13866 4781.71180   49   33 5525.00000 3654.00000  33.9%  16.1   30s
 65439 16205 4895.57470   42   51 5525.00000 3734.81493  32.4%  16.3   35s
 76923 17985 5386.00000   49   30 5525.00000 3812.64714  31.0%  16.5   40s
 88542 19706 4004.55265   42   80 5525.00000 3882.71369  29.7%  16.7   45s
 97100 20819 infeasible   52      5525.00000 3940.80806  28.7%  16.7   50s
 104687 21770 5181.24601   66   26 5525.00000 3987.56127  27.8%  16.7   55s
 113221 22662 5193.23294   44   39 5525.00000 4035.00000  27.0%  16.6   60s
 121667 23466 4922.73040   56   48 5525.00000 4082.00000  26.1%  16.5   65s
 130049 24619 infeasible   70      5525.00000 4125.00000  25.3%  16.5   70s
 138213 25503 4947.00000   47   45 5525.00000 4160.00000  24.7%  16.5   75s
 145105 26140 4907.64293   49   58 5525.00000 4192.74504  24.1%  16.5   80s
 153649 26746 4409.51815   48   55 5525.00000 4231.71330  23.4%  16.4   85s
 160462 27165 5096.23063   58   33 5525.00000 4260.69662  22.9%  16.4   90s
 168871 27580 5468.42264   54   34 5525.00000 4294.13170  22.3%  16.5   95s
 175467 27944 4475.00000   54   43 5525.00000 4323.85770  21.7%  16.4  100s
 182246 28411 4591.62909   47   56 5525.00000 4346.67844  21.3%  16.4  105s
 190615 28835 5196.07127   46   38 5525.00000 4382.00000  20.7%  16.4  111s
 197239 29209 5039.85112   60   25 5525.00000 4404.41873  20.3%  16.5  115s
 204141 29670 4631.50563   71   26 5525.00000 4425.77611  19.9%  16.5  120s
 207306 29745 4904.79574   50   57 5525.00000 4435.20152  19.7%  16.5  126s
 212443 29958 5476.94702   53   34 5525.00000 4451.49510  19.4%  16.5  130s
 219253 30081 5408.82973   51   46 5525.00000 4478.00000  19.0%  16.5  136s
 224442 30186 4842.75334   48   70 5525.00000 4494.44617  18.7%  16.5  140s
 231508 30140 infeasible   58      5525.00000 4520.00000  18.2%  16.5  145s
 238211 30238 5093.38618   50   48 5525.00000 4544.00000  17.8%  16.5  150s
 246410 30176 5318.21254   47   40 5525.00000 4572.73651  17.2%  16.5  156s
 253190 30147 5212.00000   72   18 5525.00000 4597.62865  16.8%  16.5  160s
 260304 30080 5086.40320   69   19 5525.00000 4619.76535  16.4%  16.5  165s
 266891 30003 4647.23412   50   40 5525.00000 4639.72944  16.0%  16.5  170s
 274237 29626 5445.09139   51   27 5525.00000 4665.00000  15.6%  16.5  176s
 279346 29548 4778.83693   44   54 5525.00000 4683.00000  15.2%  16.6  180s
 286270 29114 5465.36699   74   15 5525.00000 4706.55936  14.8%  16.6  185s
 293173 28705 4809.91093   51   54 5525.00000 4734.06319  14.3%  16.6  190s
 298401 28477     cutoff   50      5525.00000 4751.90244  14.0%  16.6  195s
 305223 28075 infeasible   51      5525.00000 4776.62801  13.5%  16.6  200s
 312056 27537 5445.38026   63   48 5525.00000 4801.02836  13.1%  16.6  206s
 317240 27023 4903.00000   62   36 5525.00000 4819.92798  12.8%  16.6  210s
 323782 26429 5191.22296   50   24 5525.00000 4845.00000  12.3%  16.7  216s
 329021 25882 5449.40224   51   36 5525.00000 4862.85382  12.0%  16.7  221s
 334269 25313 4905.00000   61   37 5525.00000 4882.10746  11.6%  16.7  225s
 339374 24909 5305.11457   61   28 5525.00000 4899.12657  11.3%  16.7  230s
 344416 24367 infeasible   70      5525.00000 4916.33914  11.0%  16.8  235s
 349324 23737 5001.74385   50   38 5525.00000 4933.00000  10.7%  16.8  240s
 354510 23037 infeasible   58      5525.00000 4952.75523  10.4%  16.8  245s
 359787 22252 5033.00000   72   19 5525.00000 4972.09074  10.0%  16.8  250s
 365079 21593 5423.36638   56   23 5525.00000 4991.01344  9.66%  16.8  256s
 370232 20884 infeasible   53      5525.00000 5008.82095  9.34%  16.9  261s
 373717 20302 5320.98187   45   30 5525.00000 5021.12768  9.12%  16.9  265s
 378576 19520 infeasible   50      5525.00000 5041.00000  8.76%  16.9  270s
 383939 18831 5518.85375   48   25 5525.00000 5059.00000  8.43%  17.0  276s
 389157 18028 5413.52806   52   44 5525.00000 5080.00000  8.05%  17.0  281s
 392604 17472 5391.52179   48   33 5525.00000 5092.20187  7.83%  17.0  285s
 397512 16626 5170.82513   75   32 5525.00000 5110.46556  7.50%  17.0  290s
 402729 15752 infeasible   59      5525.00000 5132.00000  7.11%  17.1  296s
 406110 15084 infeasible   56      5525.00000 5144.87993  6.88%  17.1  301s
 409686 14471     cutoff   55      5525.00000 5159.05332  6.62%  17.1  305s
 414775 13427 infeasible   56      5525.00000 5179.48975  6.25%  17.1  311s
 418212 13075 5286.96332   52   32 5525.00000 5194.37845  5.98%  17.2  316s
 419488 12326 5262.87054   44   65 5525.00000 5199.00000  5.90%  17.2  320s
 424883 11089 5277.00000   64   14 5525.00000 5226.00000  5.41%  17.2  327s
 428594 10345 5277.05786   49   40 5525.00000 5243.00000  5.10%  17.2  331s
 432091  9502 5424.00000   53   36 5525.00000 5259.98099  4.80%  17.3  336s
 435660  8525 5297.33572   54   57 5525.00000 5279.33783  4.45%  17.3  341s
 439051  7656 5346.91992   69   16 5525.00000 5299.00000  4.09%  17.3  345s
 442552  6652     cutoff   53      5525.00000 5320.00000  3.71%  17.3  350s
 447811  5000 5510.76233   52   18 5525.00000 5355.90242  3.06%  17.4  357s
 451361  3874 infeasible   62      5525.00000 5378.00000  2.66%  17.4  362s
 454898  2750 infeasible   52      5525.00000 5406.70908  2.14%  17.4  367s
 458232  1268 infeasible   59      5525.00000 5433.53695  1.66%  17.5  371s

Cutting planes:
  Learned: 311
  Gomory: 192
  Lift-and-project: 11
  Cover: 35
  Implied bound: 34
  Projected implied bound: 1
  Clique: 6
  MIR: 1354
  StrongCG: 313
  Flow cover: 2669
  Inf proof: 52
  Zero half: 67
  RLT: 2
  Relax-and-lift: 16

Explored 461825 nodes (8079221 simplex iterations) in 374.61 seconds (96.23 work units)
Thread count was 16 (of 16 available processors)

Solution count 10: 5525 5733 5919 ... 6524

Optimal solution found (tolerance 1.00e-04)
Best objective 5.525000000000e+03, best bound 5.525000000000e+03, gap 0.0000%
Warning: constraint name "precedence between 0,0 to 0,1 if x_[0,0,0,1,3]=0, i.e. 0,1 before 0,0" has a space
Warning: constraint name "precedence between 0,0 to 0,1 if x_[0,0,0,1,3]=0, i.e. 0,1 before 0,0" has a space
Warning: default constraint names used to write mps file
